NAME : A-n36-k5-20
TYPE : VRP-D
DIMENSION : 20
CAPACITY : 100
NODE_COORD_SECTION 
 1 15 19
 2 1 49
 3 87 25
 4 69 65
 5 93 91
 6 33 31
 7 71 61
 8 29 9
 9 93 7
 10 55 47
 11 23 13
 12 19 47
 13 57 63
 14 5 95
 15 65 43
 16 69 1
 17 3 25
 18 19 91
 19 21 81
 20 67 91
DEMAND_SECTION 
1 0 
2 1 
3 14 
4 15 
5 11 
6 18 
7 2 
8 22 
9 7 
10 18 
11 23 
12 12 
13 21 
14 2 
15 14 
16 9 
17 10 
18 4 
19 19 
20 2 
DEPOT_SECTION 
 1  
 -1  
EOF 
